\ENCODING=ISO-8859-1
\Problem name: /tmp/tmpi6q7n24y/gt2.mps

Minimize
 COST....: 3595 x...0101 + 3595 x...0201 + 1833 x...0301 + 3595 x...0401
           + 3595 x...0701 + 3595 x...0801 + 1833 x...0901 + 3595 x...1001
           + 3100 x...0102 + 3100 x...0202 + 1257 x...0302 + 3100 x...0402
           + 1355 x...0502 + 7797 x...0602 + 3100 x...0702 + 3100 x...0802
           + 1257 x...0902 + 3100 x...1002 + 1355 x...1102 + 7797 x...1202
           + 2685 x...0103 + 2685 x...0203 + 1257 x...0303 + 2685 x...0403
           + 1176 x...0503 + 6214 x...0603 + 2685 x...0703 + 2685 x...0803
           + 1257 x...0903 + 2685 x...1003 + 1176 x...1103 + 6214 x...1203
           + 2940 x...0104 + 2940 x...0204 + 1980 x...0304 + 2940 x...0404
           + 1980 x...0504 + 7145 x...0604 + 2940 x...0704 + 2940 x...0804
           + 1980 x...0904 + 2940 x...1004 + 1980 x...1104 + 7145 x...1204
           + 3100 x...0105 + 3100 x...0205 + 1816 x...0305 + 3100 x...0405
           + 1926 x...0505 + 7011 x...0605 + 3100 x...0705 + 3100 x...0805
           + 1816 x...0905 + 3100 x...1005 + 1926 x...1105 + 7011 x...1205
           + 3100 x...0106 + 3100 x...0206 + 1816 x...0306 + 3100 x...0406
           + 1983 x...0506 + 7797 x...0606 + 3100 x...0706 + 3100 x...0806
           + 1816 x...0906 + 3100 x...1006 + 1983 x...1106 + 7797 x...1206
           + 1926 x...0507 + 7011 x...0607 + 1926 x...1107 + 7011 x...1207
           + 3100 x...0108 + 3100 x...0208 + 1257 x...0308 + 3100 x...0408
           + 3100 x...0708 + 3100 x...0808 + 1257 x...0908 + 3100 x...1008
           + 2448 x...0109 + 2448 x...0209 + 1652 x...0309 + 2448 x...0409
           + 1652 x...0509 + 5954 x...0609 + 2448 x...0709 + 2448 x...0809
           + 1652 x...0909 + 2448 x...1009 + 1652 x...1109 + 5954 x...1209
Subject To
 dem...01: 50 x...0101 + 45 x...0102 + 40 x...0103 + 30 x...0104 + 32 x...0105
           + 50 x...0106 + 45 x...0108 + 2534 x...0109 + 22 x...0110
           + 56 x...0111 + 30 x...0112 + 30 x...0113 + 23 x...0114
           + 42 x...0115 + 56 x...0116 + 28 x...0117 >= 200
 dem...02: 50 x...0201 + 45 x...0202 + 40 x...0203 + 30 x...0204 + 32 x...0205
           + 50 x...0206 + 45 x...0208 + 2534 x...0209 + 22 x...0210
           + 56 x...0211 + 30 x...0212 + 30 x...0213 + 23 x...0214
           + 42 x...0215 + 56 x...0216 + 28 x...0217 >= 80
 dem...03: 50 x...0301 + 45 x...0302 + 40 x...0303 + 30 x...0304 + 32 x...0305
           + 50 x...0306 + 45 x...0308 + 2534 x...0309 + 22 x...0310
           + 56 x...0311 + 30 x...0312 + 30 x...0313 + 23 x...0314
           + 42 x...0315 + 56 x...0316 + 28 x...0317 >= 300
 dem...04: 50 x...0401 + 45 x...0402 + 40 x...0403 + 30 x...0404 + 32 x...0405
           + 52 x...0406 + 44 x...0408 + 2534 x...0409 + 22 x...0410
           + 56 x...0411 + 30 x...0412 + 30 x...0413 + 23 x...0414
           + 42 x...0415 + 56 x...0416 + 28 x...0417 >= 250
 dem...05: 28 x...0502 + 45 x...0503 + 16.5 x...0504 + 45 x...0505
           + 52 x...0506 + 45 x...0507 + 2519 x...0509 + 25 x...0510
           + 34 x...0511 + 25 x...0512 + 19 x...0513 + 56 x...0514
           + 34 x...0515 + 34 x...0516 + 25 x...0517 >= 61
 dem...06: 28 x...0602 + 45 x...0603 + 16.5 x...0604 + 45 x...0605
           + 52 x...0606 + 45 x...0607 + 2519 x...0609 + 25 x...0610
           + 34 x...0611 + 25 x...0612 + 19 x...0613 + 56 x...0614
           + 34 x...0615 + 34 x...0616 + 25 x...0617 >= 6064
 dem...07: 50 x...0701 + 45 x...0702 + 40 x...0703 + 30 x...0704 + 32 x...0705
           + 50 x...0706 + 45 x...0708 + 2534 x...0709 + 22 x...0710
           + 56 x...0711 + 30 x...0712 + 30 x...0713 + 23 x...0714
           + 42 x...0715 + 56 x...0716 + 28 x...0717 >= 94
 dem...08: 50 x...0801 + 45 x...0802 + 40 x...0803 + 30 x...0804 + 32 x...0805
           + 50 x...0806 + 45 x...0808 + 2534 x...0809 + 22 x...0810
           + 56 x...0811 + 30 x...0812 + 30 x...0813 + 23 x...0814
           + 42 x...0815 + 56 x...0816 + 28 x...0817 >= 67
 dem...09: 50 x...0901 + 45 x...0902 + 40 x...0903 + 30 x...0904 + 32 x...0905
           + 50 x...0906 + 45 x...0908 + 2534 x...0909 + 22 x...0910
           + 56 x...0911 + 30 x...0912 + 30 x...0913 + 23 x...0914
           + 42 x...0915 + 56 x...0916 + 28 x...0917 >= 450
 dem...10: 50 x...1001 + 45 x...1002 + 40 x...1003 + 30 x...1004 + 32 x...1005
           + 52 x...1006 + 44 x...1008 + 2534 x...1009 + 22 x...1010
           + 56 x...1011 + 30 x...1012 + 30 x...1013 + 23 x...1014
           + 42 x...1015 + 56 x...1016 + 28 x...1017 >= 231
 dem...11: 28 x...1102 + 45 x...1103 + 16.5 x...1104 + 45 x...1105
           + 52 x...1106 + 45 x...1107 + 2519 x...1109 + 25 x...1110
           + 34 x...1111 + 25 x...1112 + 19 x...1113 + 56 x...1114
           + 34 x...1115 + 34 x...1116 + 25 x...1117 >= 76
 dem...12: 28 x...1202 + 45 x...1203 + 16.5 x...1204 + 45 x...1205
           + 52 x...1206 + 45 x...1207 + 2519 x...1209 + 25 x...1210
           + 34 x...1211 + 25 x...1212 + 19 x...1213 + 56 x...1214
           + 34 x...1215 + 34 x...1216 + 25 x...1217 >= 0
 avail.01: x...0101 + x...0201 + x...0301 + x...0401 + x...0701 + x...0801
           + x...0901 + x...1001 <= 9
 avail.02: x...0102 + x...0202 + x...0302 + x...0402 + x...0502 + x...0602
           + x...0702 + x...0802 + x...0902 + x...1002 + x...1102 + x...1202
           <= 15
 avail.03: x...0103 + x...0203 + x...0303 + x...0403 + x...0503 + x...0603
           + x...0703 + x...0803 + x...0903 + x...1003 + x...1103 + x...1203
           <= 14
 avail.04: x...0104 + x...0204 + x...0304 + x...0404 + x...0504 + x...0604
           + x...0704 + x...0804 + x...0904 + x...1004 + x...1104 + x...1204
           <= 1
 avail.05: x...0105 + x...0205 + x...0305 + x...0405 + x...0505 + x...0605
           + x...0705 + x...0805 + x...0905 + x...1005 + x...1105 + x...1205
           <= 6
 avail.06: x...0106 + x...0206 + x...0306 + x...0406 + x...0506 + x...0606
           + x...0706 + x...0806 + x...0906 + x...1006 + x...1106 + x...1206
           <= 8
 avail.07: x...0507 + x...0607 + x...1107 + x...1207 <= 5
 avail.08: x...0108 + x...0208 + x...0308 + x...0408 + x...0708 + x...0808
           + x...0908 + x...1008 <= 12
 avail.09: x...0109 + x...0209 + x...0309 + x...0409 + x...0509 + x...0609
           + x...0709 + x...0809 + x...0909 + x...1009 + x...1109 + x...1209
           <= 5
 avail.10: x...0110 + x...0210 + x...0310 + x...0410 + x...0510 + x...0610
           + x...0710 + x...0810 + x...0910 + x...1010 + x...1110 + x...1210
           <= 6
 avail.11: x...0111 + x...0211 + x...0311 + x...0411 + x...0511 + x...0611
           + x...0711 + x...0811 + x...0911 + x...1011 + x...1111 + x...1211
           <= 4
 avail.12: x...0112 + x...0212 + x...0312 + x...0412 + x...0512 + x...0612
           + x...0712 + x...0812 + x...0912 + x...1012 + x...1112 + x...1212
           <= 9
 avail.13: x...0113 + x...0213 + x...0313 + x...0413 + x...0513 + x...0613
           + x...0713 + x...0813 + x...0913 + x...1013 + x...1113 + x...1213
           <= 5
 avail.14: x...0114 + x...0214 + x...0314 + x...0414 + x...0514 + x...0614
           + x...0714 + x...0814 + x...0914 + x...1014 + x...1114 + x...1214
           <= 4
 avail.15: x...0115 + x...0215 + x...0315 + x...0415 + x...0515 + x...0615
           + x...0715 + x...0815 + x...0915 + x...1015 + x...1115 + x...1215
           <= 2
 avail.16: x...0116 + x...0216 + x...0316 + x...0416 + x...0516 + x...0616
           + x...0716 + x...0816 + x...0916 + x...1016 + x...1116 + x...1216
           <= 2
 avail.17: x...0117 + x...0217 + x...0317 + x...0417 + x...0517 + x...0617
           + x...0717 + x...0817 + x...0917 + x...1017 + x...1117 + x...1217
           <= 1
Bounds
 0 <= x...0101 <= 9
 0 <= x...0201 <= 9
 0 <= x...0301 <= 9
 0 <= x...0401 <= 9
 0 <= x...0701 <= 9
 0 <= x...0801 <= 9
 0 <= x...0901 <= 9
 0 <= x...1001 <= 9
 0 <= x...0102 <= 15
 0 <= x...0202 <= 15
 0 <= x...0302 <= 15
 0 <= x...0402 <= 15
 0 <= x...0502 <= 15
 0 <= x...0602 <= 15
 0 <= x...0702 <= 15
 0 <= x...0802 <= 15
 0 <= x...0902 <= 15
 0 <= x...1002 <= 15
 0 <= x...1102 <= 15
 0 <= x...1202 <= 15
 0 <= x...0103 <= 14
 0 <= x...0203 <= 14
 0 <= x...0303 <= 14
 0 <= x...0403 <= 14
 0 <= x...0503 <= 14
 0 <= x...0603 <= 14
 0 <= x...0703 <= 14
 0 <= x...0803 <= 14
 0 <= x...0903 <= 14
 0 <= x...1003 <= 14
 0 <= x...1103 <= 14
 0 <= x...1203 <= 14
 0 <= x...0104 <= 1
 0 <= x...0204 <= 1
 0 <= x...0304 <= 1
 0 <= x...0404 <= 1
 0 <= x...0504 <= 1
 0 <= x...0604 <= 1
 0 <= x...0704 <= 1
 0 <= x...0804 <= 1
 0 <= x...0904 <= 1
 0 <= x...1004 <= 1
 0 <= x...1104 <= 1
 0 <= x...1204 <= 1
 0 <= x...0105 <= 6
 0 <= x...0205 <= 6
 0 <= x...0305 <= 6
 0 <= x...0405 <= 6
 0 <= x...0505 <= 6
 0 <= x...0605 <= 6
 0 <= x...0705 <= 6
 0 <= x...0805 <= 6
 0 <= x...0905 <= 6
 0 <= x...1005 <= 6
 0 <= x...1105 <= 6
 0 <= x...1205 <= 6
 0 <= x...0106 <= 8
 0 <= x...0206 <= 8
 0 <= x...0306 <= 8
 0 <= x...0406 <= 8
 0 <= x...0506 <= 8
 0 <= x...0606 <= 8
 0 <= x...0706 <= 8
 0 <= x...0806 <= 8
 0 <= x...0906 <= 8
 0 <= x...1006 <= 8
 0 <= x...1106 <= 8
 0 <= x...1206 <= 8
 0 <= x...0507 <= 5
 0 <= x...0607 <= 5
 0 <= x...1107 <= 5
 0 <= x...1207 <= 5
 0 <= x...0108 <= 12
 0 <= x...0208 <= 12
 0 <= x...0308 <= 12
 0 <= x...0408 <= 12
 0 <= x...0708 <= 12
 0 <= x...0808 <= 12
 0 <= x...0908 <= 12
 0 <= x...1008 <= 12
 0 <= x...0109 <= 5
 0 <= x...0209 <= 5
 0 <= x...0309 <= 5
 0 <= x...0409 <= 5
 0 <= x...0509 <= 5
 0 <= x...0609 <= 5
 0 <= x...0709 <= 5
 0 <= x...0809 <= 5
 0 <= x...0909 <= 5
 0 <= x...1009 <= 5
 0 <= x...1109 <= 5
 0 <= x...1209 <= 5
 0 <= x...0110 <= 6
 0 <= x...0111 <= 4
 0 <= x...0112 <= 9
 0 <= x...0113 <= 5
 0 <= x...0114 <= 4
 0 <= x...0115 <= 2
 0 <= x...0116 <= 2
 0 <= x...0117 <= 1
 0 <= x...0210 <= 6
 0 <= x...0211 <= 4
 0 <= x...0212 <= 9
 0 <= x...0213 <= 5
 0 <= x...0214 <= 4
 0 <= x...0215 <= 2
 0 <= x...0216 <= 2
 0 <= x...0217 <= 1
 0 <= x...0310 <= 6
 0 <= x...0311 <= 4
 0 <= x...0312 <= 9
 0 <= x...0313 <= 5
 0 <= x...0314 <= 4
 0 <= x...0315 <= 2
 0 <= x...0316 <= 2
 0 <= x...0317 <= 1
 0 <= x...0410 <= 6
 0 <= x...0411 <= 4
 0 <= x...0412 <= 9
 0 <= x...0413 <= 5
 0 <= x...0414 <= 4
 0 <= x...0415 <= 2
 0 <= x...0416 <= 2
 0 <= x...0417 <= 1
 0 <= x...0510 <= 6
 0 <= x...0511 <= 4
 0 <= x...0512 <= 9
 0 <= x...0513 <= 5
 0 <= x...0514 <= 4
 0 <= x...0515 <= 2
 0 <= x...0516 <= 2
 0 <= x...0517 <= 1
 0 <= x...0610 <= 6
 0 <= x...0611 <= 4
 0 <= x...0612 <= 9
 0 <= x...0613 <= 5
 0 <= x...0614 <= 4
 0 <= x...0615 <= 2
 0 <= x...0616 <= 2
 0 <= x...0617 <= 1
 0 <= x...0710 <= 6
 0 <= x...0711 <= 4
 0 <= x...0712 <= 9
 0 <= x...0713 <= 5
 0 <= x...0714 <= 4
 0 <= x...0715 <= 2
 0 <= x...0716 <= 2
 0 <= x...0717 <= 1
 0 <= x...0810 <= 6
 0 <= x...0811 <= 4
 0 <= x...0812 <= 9
 0 <= x...0813 <= 5
 0 <= x...0814 <= 4
 0 <= x...0815 <= 2
 0 <= x...0816 <= 2
 0 <= x...0817 <= 1
 0 <= x...0910 <= 6
 0 <= x...0911 <= 4
 0 <= x...0912 <= 9
 0 <= x...0913 <= 5
 0 <= x...0914 <= 4
 0 <= x...0915 <= 2
 0 <= x...0916 <= 2
 0 <= x...0917 <= 1
 0 <= x...1010 <= 6
 0 <= x...1011 <= 4
 0 <= x...1012 <= 9
 0 <= x...1013 <= 5
 0 <= x...1014 <= 4
 0 <= x...1015 <= 2
 0 <= x...1016 <= 2
 0 <= x...1017 <= 1
 0 <= x...1110 <= 6
 0 <= x...1111 <= 4
 0 <= x...1112 <= 9
 0 <= x...1113 <= 5
 0 <= x...1114 <= 4
 0 <= x...1115 <= 2
 0 <= x...1116 <= 2
 0 <= x...1117 <= 1
 0 <= x...1210 <= 6
 0 <= x...1211 <= 4
 0 <= x...1212 <= 9
 0 <= x...1213 <= 5
 0 <= x...1214 <= 4
 0 <= x...1215 <= 2
 0 <= x...1216 <= 2
 0 <= x...1217 <= 1
Binaries
 x...0104  x...0204  x...0304  x...0404  x...0504  x...0604  x...0704 
 x...0804  x...0904  x...1004  x...1104  x...1204  x...0117  x...0217 
 x...0317  x...0417  x...0517  x...0617  x...0717  x...0817  x...0917 
 x...1017  x...1117  x...1217 
Generals
 x...0101  x...0201  x...0301  x...0401  x...0701  x...0801  x...0901 
 x...1001  x...0102  x...0202  x...0302  x...0402  x...0502  x...0602 
 x...0702  x...0802  x...0902  x...1002  x...1102  x...1202  x...0103 
 x...0203  x...0303  x...0403  x...0503  x...0603  x...0703  x...0803 
 x...0903  x...1003  x...1103  x...1203  x...0105  x...0205  x...0305 
 x...0405  x...0505  x...0605  x...0705  x...0805  x...0905  x...1005 
 x...1105  x...1205  x...0106  x...0206  x...0306  x...0406  x...0506 
 x...0606  x...0706  x...0806  x...0906  x...1006  x...1106  x...1206 
 x...0507  x...0607  x...1107  x...1207  x...0108  x...0208  x...0308 
 x...0408  x...0708  x...0808  x...0908  x...1008  x...0109  x...0209 
 x...0309  x...0409  x...0509  x...0609  x...0709  x...0809  x...0909 
 x...1009  x...1109  x...1209  x...0110  x...0111  x...0112  x...0113 
 x...0114  x...0115  x...0116  x...0210  x...0211  x...0212  x...0213 
 x...0214  x...0215  x...0216  x...0310  x...0311  x...0312  x...0313 
 x...0314  x...0315  x...0316  x...0410  x...0411  x...0412  x...0413 
 x...0414  x...0415  x...0416  x...0510  x...0511  x...0512  x...0513 
 x...0514  x...0515  x...0516  x...0610  x...0611  x...0612  x...0613 
 x...0614  x...0615  x...0616  x...0710  x...0711  x...0712  x...0713 
 x...0714  x...0715  x...0716  x...0810  x...0811  x...0812  x...0813 
 x...0814  x...0815  x...0816  x...0910  x...0911  x...0912  x...0913 
 x...0914  x...0915  x...0916  x...1010  x...1011  x...1012  x...1013 
 x...1014  x...1015  x...1016  x...1110  x...1111  x...1112  x...1113 
 x...1114  x...1115  x...1116  x...1210  x...1211  x...1212  x...1213 
 x...1214  x...1215  x...1216 
End
